qe/outputs/qe/qe_queries/T=5,eliminate=[I_0,I_1,I_2,I_3,I_4,L_1,L_2,L_3,L_4,C,B,lhs=Q_4].smt2
; benchmark generated from python API
(set-info :status unknown)
(declare-fun L_0 () Real)
(declare-fun S_3 () Real)
(declare-fun A_3 () Real)
(declare-fun S_2 () Real)
(declare-fun S_1 () Real)
(declare-fun A_1 () Real)
(declare-fun A_2 () Real)
(declare-fun S_4 () Real)
(declare-fun A_0 () Real)
(declare-fun S_0 () Real)
(declare-fun A_4 () Real)
(declare-fun Q_4 () Real)
(assert
 (let (($x1419 (>= Q_4 0.0)))
 (let ((?x1387 (* (- 1.0) S_1)))
 (let ((?x794 (* (- 1.0) L_0)))
 (let ((?x1375 (* (- 1.0) S_2)))
 (let ((?x2274 (* 2.0 A_0)))
 (let ((?x1070 (* (- 1.0) A_2)))
 (let ((?x761 (* (- 1.0) Q_4)))
 (let (($x73663 (<= (+ ?x761 ?x1070 S_3 ?x2274 ?x1375 ?x794 ?x1387) 0.0)))
 (let (($x52125 (<= (+ Q_4 A_1 ?x1375 S_0 (* (- 1.0) A_0)) 0.0)))
 (let ((?x2009 (* (- 3.0) A_2)))
 (let ((?x23552 (* (- 6.0) S_2)))
 (let ((?x23551 (* (- 6.0) L_0)))
 (let ((?x23550 (* 6.0 A_0)))
 (let ((?x2198 (* 3.0 A_4)))
 (let ((?x2199 (* (- 3.0) Q_4)))
 (let (($x23558 (<= (+ ?x2199 ?x2198 ?x23550 ?x23551 ?x23552 ?x2009) 0.0)))
 (let (($x2279 (<= (+ (* (- 1.0) A_3) A_4 A_0 ?x1375 ?x794) 0.0)))
 (let (($x2104 (<= (+ ?x761 A_4 (* (- 1.0) A_3) A_0 ?x794 ?x1375) 0.0)))
 (let (($x2147 (not $x2104)))
 (let (($x1956 (<= (+ A_1 ?x1375 ?x794) 0.0)))
 (let ((?x2004 (* 2.0 A_2)))
 (let ((?x1289 (* (- 1.0) S_3)))
 (let ((?x1726 (* (- 2.0) A_3)))
 (let ((?x2150 (* (- 2.0) Q_4)))
 (let (($x63796 (<= (+ Q_4 A_2 ?x1289 (* (- 1.0) A_0) S_0) 0.0)))
 (let (($x5606 (<= (+ A_1 S_4 ?x1289 (* (- 1.0) A_3)) 0.0)))
 (let ((?x1680 (* (- (/ 1.0 2.0)) A_1)))
 (let ((?x1315 (* (- (/ 1.0 2.0)) L_0)))
 (let ((?x1296 (* (/ 1.0 2.0) A_0)))
 (let ((?x1266 (* (/ 1.0 2.0) S_4)))
 (let ((?x3330 (* (- (/ 1.0 2.0)) A_3)))
 (let ((?x1639 (* (/ 1.0 2.0) Q_4)))
 (let (($x3341 (<= (+ ?x1639 ?x3330 ?x1266 A_2 ?x1289 ?x1296 ?x1315 ?x1680) 0.0)))
 (let (($x1949 (<= (+ A_2 ?x1289 ?x794) 0.0)))
 (let (($x973 (<= (+ ?x1296 ?x1315 ?x1266 ?x1289) 0.0)))
 (let (($x1194938 (or $x973 $x1949 $x3341 $x5606 $x63796 (<= (+ (* 2.0 Q_4) ?x2004 S_4 ?x1289 ?x1726) 0.0) (not (<= (+ ?x2150 ?x1726 S_4 ?x1289 ?x2004) 0.0)))))
 (let (($x94348 (<= (+ ?x761 (* (- 1.0) A_3) S_4 ?x2274 ?x1375 ?x794 ?x1387) 0.0)))
 (let (($x2128 (<= (+ ?x2150 (* 2.0 A_4) ?x1726 A_0 ?x1289 ?x794) 0.0)))
 (let (($x1158407 (or $x1956 $x2128 $x5606 (not (<= (+ ?x794 (* (- 2.0) S_2) S_0 A_2) 0.0)) $x63796 (<= (+ ?x1639 ?x1315 ?x1375 (* (/ 1.0 2.0) S_0) (* (/ 1.0 2.0) A_2)) 0.0) $x94348)))
 (let ((?x1672 (* (- (/ 1.0 2.0)) S_3)))
 (let ((?x1404 (* (/ 3.0 2.0) A_0)))
 (let ((?x934 (* (- 1.0) A_3)))
 (let (($x157062 (<= (+ ?x761 ?x934 S_4 ?x1404 ?x1672 ?x1315 ?x1387) 0.0)))
 (let (($x90458 (<= (+ ?x934 S_4 A_2 ?x1289 A_0 ?x1375 ?x794) 0.0)))
 (let (($x439091 (or $x1956 $x2128 (not (<= (+ A_2 A_0 ?x1375 ?x794 (* (- 1.0) A_1)) 0.0)) $x52125 $x90458 $x157062 (<= (+ Q_4 A_2 A_0 ?x1375 ?x794 (* (- 1.0) A_1)) 0.0))))
 (let (($x52931 (<= (+ Q_4 A_1 ?x1266 (* (- (/ 3.0 2.0)) S_3) S_0 (* (- 1.0) A_0)) 0.0)))
 (let (($x4264 (<= (+ (* (/ 2.0 3.0) A_1) (* (/ 1.0 3.0) S_4) ?x1289 (* (- (/ 2.0 3.0)) L_0)) 0.0)))
 (let ((?x3603 (* (- (/ 4.0 3.0)) A_1)))
 (let ((?x3530 (* (- (/ 1.0 3.0)) L_0)))
 (let ((?x3522 (* (/ 1.0 3.0) A_0)))
 (let ((?x3533 (* (- (/ 1.0 3.0)) S_4)))
 (let ((?x3601 (* (/ 4.0 3.0) A_2)))
 (let ((?x3600 (* (/ 4.0 3.0) Q_4)))
 (let (($x2039 (= Q_4 0.0)))
 (let (($x439071 (or $x973 $x1949 $x2039 (<= (+ ?x3600 ?x3601 ?x3533 ?x3522 ?x3530 ?x3603) 0.0) $x4264 $x52931 $x63796)))
 (let (($x85251 (<= (+ ?x934 S_4 A_0 ?x1375) 0.0)))
 (let (($x1163679 (or $x1956 $x5606 $x63796 $x85251 (not (<= (+ ?x761 ?x934 S_4 A_0 ?x1375) 0.0)))))
 (let ((?x6028 (* 2.0 S_1)))
 (let ((?x4962 (* (- 2.0) S_3)))
 (let ((?x757 (* (- 1.0) A_1)))
 (let (($x140880 (<= (+ ?x761 A_4 ?x757 ?x4962 ?x6028 A_0 ?x1070) 0.0)))
 (let (($x140613 (<= (+ ?x761 A_4 ?x757 ?x1289 S_1 A_0 ?x934) 0.0)))
 (let (($x51719 (<= (+ ?x761 ?x757 A_0) 0.0)))
 (let (($x22543 (<= (+ ?x1639 (* (- (/ 1.0 2.0)) A_4) (* (/ 3.0 2.0) A_2) ?x757) 0.0)))
 (let (($x6738 (<= (+ ?x761 A_4 ?x757 (* (- 3.0) S_3) (* 3.0 S_1)) 0.0)))
 (let ((?x1739 (* (- 2.0) L_0)))
 (let ((?x2275 (* (- 2.0) S_2)))
 (let ((?x2266 (* 3.0 A_0)))
 (let (($x198483 (<= (+ ?x761 A_4 ?x1070 S_3 ?x2266 ?x2275 ?x1739 ?x1387 ?x934) 0.0)))
 (let (($x1143854 (or $x1956 (<= (+ A_1 A_4 ?x1070 ?x934) 0.0) (not (<= (+ ?x761 A_4 ?x934 A_1 ?x1070) 0.0)) $x23558 $x52125 $x73663 $x198483)))
 (let ((?x3379 (* (/ 1.0 2.0) A_3)))
 (let ((?x1378 (* (- (/ 1.0 2.0)) A_0)))
 (let ((?x1625 (* (/ 1.0 2.0) S_0)))
 (let ((?x1675 (* (/ 1.0 2.0) S_3)))
 (let ((?x1685 (* (- (/ 1.0 2.0)) A_2)))
 (let ((?x1626 (* (- (/ 1.0 2.0)) A_4)))
 (let (($x19315 (<= (+ ?x1639 ?x1626 ?x1685 ?x1675 A_1 ?x1375 ?x1625 ?x1378 ?x3379) 0.0)))
 (let (($x1149170 (or $x1956 (<= (+ ?x934 A_4 ?x757 ?x1387 ?x794 ?x2274) 0.0) $x19315 $x23558 (not (<= (+ ?x761 A_4 ?x934 ?x2274 ?x794 ?x1387 ?x757) 0.0)) $x73663 $x198483)))
 (let (($x128295 (<= (+ (* (/ 1.0 2.0) A_2) (* (- (/ 1.0 2.0)) S_4) ?x1680 (* (/ 1.0 2.0) S_2)) 0.0)))
 (let (($x111626 (<= (+ ?x761 ?x757 (* (- 1.0) S_4) (* 2.0 S_2) ?x1387 A_0) 0.0)))
 (let (($x6461 (<= (+ ?x2150 (* 2.0 A_4) A_1 (* (- 3.0) A_3)) 0.0)))
 (let (($x2713 (<= (+ A_3 (* (- 1.0) S_4) ?x1070 S_2) 0.0)))
 (let (($x117302 (<= (+ ?x1639 ?x3379 (* (- (/ 1.0 2.0)) S_4) (* (/ 1.0 2.0) S_2) ?x1685) 0.0)))
 (let (($x40606 (<= (+ Q_4 A_3 (* (- 1.0) S_4) S_0 (* (- 1.0) A_0)) 0.0)))
 (let (($x13913 (<= (+ Q_4 A_3 (* (- 1.0) S_4) ?x1296 ?x1315 (* (/ 1.0 2.0) S_2) ?x757) 0.0)))
 (let (($x2672 (not $x2713)))
 (let (($x2152 (<= (+ A_3 (* (- 1.0) S_4) ?x794) 0.0)))
 (let (($x3373 (<= (+ (* (- (/ 1.0 2.0)) Q_4) ?x3330 ?x1266 ?x1296 ?x1375 ?x1315 (* (/ 1.0 2.0) A_1)) 0.0)))
 (let (($x70199 (<= (+ ?x761 ?x1070 S_4 ?x2266 ?x2275 ?x1739 ?x1387) 0.0)))
 (let ((?x3570 (* (/ 1.0 3.0) A_1)))
 (let ((?x3561 (* (- (/ 2.0 3.0)) L_0)))
 (let ((?x3559 (* (/ 2.0 3.0) A_0)))
 (let ((?x3558 (* (/ 1.0 3.0) S_4)))
 (let ((?x3566 (* (- (/ 1.0 3.0)) A_2)))
 (let ((?x3565 (* (- (/ 1.0 3.0)) Q_4)))
 (let (($x3574 (<= (+ ?x3565 ?x3566 ?x3558 ?x3559 ?x1375 ?x3561 ?x3570) 0.0)))
 (let (($x3541 (not $x3574)))
 (let (($x100581 (<= (+ (* (- (/ 1.0 2.0)) Q_4) ?x3330 ?x1296 ?x1675 ?x1315 ?x1375 (* (/ 1.0 2.0) A_2)) 0.0)))
 (let (($x1677 (<= (+ ?x1639 ?x1626 (* (/ 1.0 2.0) A_1) ?x1675 ?x1375 ?x1625 ?x1378 (* (/ 1.0 2.0) A_2)) 0.0)))
 (let (($x6211 (<= (+ ?x757 (* (- 1.0) S_4) S_1 A_3) 0.0)))
 (let (($x1156693 (or $x2672 (<= (+ (* (- 1.0) S_4) (* 2.0 S_2) ?x1387) 0.0) $x6211 $x6461 $x111626 $x117302)))
 (let ((?x3752 (* 2.0 A_1)))
 (let ((?x4951 (* 2.0 S_3)))
 (let ((?x856 (* (- 1.0) A_4)))
 (let (($x24389 (<= (+ Q_4 ?x856 ?x1070 ?x4951 ?x3752 ?x2275) 0.0)))
 (let (($x10978 (<= (+ ?x3559 ?x3561 (* (/ 1.0 3.0) S_3) ?x1375) 0.0)))
 (let (($x1159639 (or $x1956 $x2039 $x19315 $x23558 (<= (+ ?x761 ?x1070 S_3 A_0 ?x2275 ?x794 A_1) 0.0) $x198483)))
 (let (($x12982 (<= (+ ?x934 S_4 ?x1296 ?x1672 (* (/ 1.0 2.0) L_0)) 0.0)))
 (let (($x13297 (<= (+ ?x761 ?x1289 ?x794 A_2) 0.0)))
 (let (($x12450 (not $x13297)))
 (let (($x1204271 (or (<= (+ A_1 ?x1675 (* (- (/ 1.0 2.0)) S_2) ?x1070) 0.0) $x10978 (not (<= (+ (* (- (/ 1.0 2.0)) Q_4) ?x3379 (* (/ 1.0 2.0) A_1) ?x1070) 0.0)) $x24389)))
 (let (($x51115 (not (<= (+ ?x761 ?x757 ?x1289 S_1 A_2) 0.0))))
 (let (($x2474 (<= (+ A_2 ?x1289 S_1 ?x757) 0.0)))
 (let (($x1377 (<= (+ (* (/ 3.0 4.0) A_0) (* (- (/ 3.0 4.0)) L_0) (* (/ 1.0 4.0) S_4) ?x1375) 0.0)))
 (let (($x87289 (<= (+ ?x3565 (* (- (/ 1.0 3.0)) A_3) ?x3558 ?x3559 ?x3561 ?x1375 (* (/ 1.0 3.0) A_2)) 0.0)))
 (let (($x35456 (<= (+ Q_4 ?x856 S_4 A_2 ?x1289) 0.0)))
 (let ((?x59759 (* (- (/ 1.0 4.0)) A_3)))
 (let ((?x56047 (* (/ 1.0 4.0) A_1)))
 (let ((?x1373 (* (- (/ 3.0 4.0)) L_0)))
 (let ((?x1372 (* (/ 3.0 4.0) A_0)))
 (let ((?x1374 (* (/ 1.0 4.0) S_4)))
 (let ((?x93671 (* (- (/ 1.0 4.0)) A_2)))
 (let ((?x17138 (* (/ 1.0 4.0) A_4)))
 (let ((?x17141 (* (- (/ 1.0 4.0)) Q_4)))
 (let (($x94631 (<= (+ ?x17141 ?x17138 ?x93671 ?x1374 ?x1372 ?x1375 ?x1373 ?x56047 ?x59759) 0.0)))
 (let ((?x5475 (* (/ 2.0 3.0) A_3)))
 (let ((?x3577 (* (- (/ 2.0 3.0)) A_0)))
 (let ((?x5581 (* (/ 2.0 3.0) S_0)))
 (let ((?x6365 (* (- (/ 2.0 3.0)) A_4)))
 (let ((?x3555 (* (/ 2.0 3.0) Q_4)))
 (let (($x44018 (<= (+ ?x3555 ?x6365 ?x3566 ?x3558 A_1 ?x1375 ?x5581 ?x3577 ?x5475) 0.0)))
 (let ((?x8865 (* (- 2.0) S_0)))
 (let ((?x3728 (* 3.0 S_2)))
 (let ((?x2837 (* (- 3.0) A_1)))
 (let ((?x2133 (* 2.0 A_4)))
 (let ((?x1489 (* (- 1.0) S_4)))
 (let (($x29756 (<= (+ A_2 ?x1489 ?x2133 ?x2837 ?x3728 ?x8865 ?x2274 ?x1726) 0.0)))
 (let ((?x63706 (* (/ 3.0 4.0) A_3)))
 (let ((?x1383 (* (- (/ 3.0 4.0)) A_0)))
 (let ((?x62608 (* (/ 3.0 4.0) S_0)))
 (let ((?x61998 (* (/ 3.0 4.0) A_1)))
 (let ((?x17104 (* (- (/ 3.0 4.0)) A_4)))
 (let ((?x17095 (* (/ 3.0 4.0) Q_4)))
 (let (($x100283 (<= (+ ?x17095 ?x17104 ?x61998 ?x1374 ?x1375 ?x62608 ?x1383 ?x63706) 0.0)))
 (let ((?x2268 (* (- 3.0) L_0)))
 (let ((?x2271 (* (- 3.0) S_2)))
 (let ((?x16860 (* 4.0 A_0)))
 (let (($x46471 (<= (+ ?x761 A_4 ?x1070 S_4 ?x16860 ?x2271 ?x2268 ?x1387 ?x934) 0.0)))
 (let (($x147404 (<= (+ ?x2150 ?x2133 (* (- 2.0) A_1) ?x1489 S_1 ?x2274 ?x1726) 0.0)))
 (let (($x104225 (<= (+ ?x761 A_4 A_2 ?x1489 (* (- 2.0) A_1) S_1 A_0 ?x934) 0.0)))
 (let ((?x1658 (* (/ 1.0 2.0) A_2)))
 (let ((?x1679 (* (/ 1.0 2.0) A_4)))
 (let ((?x1678 (* (- (/ 1.0 2.0)) Q_4)))
 (let (($x23277 (<= (+ ?x1678 ?x1679 ?x1658 ?x1489 ?x757 S_1) 0.0)))
 (let (($x1213467 (or $x6211 $x23277 (not (<= (+ Q_4 ?x856 (* 3.0 A_2) (* (- 2.0) A_1)) 0.0)) $x51719 $x104225 $x147404)))
 (let (($x207347 (<= (+ ?x3555 ?x6365 (* (/ 2.0 3.0) A_1) (* (/ 1.0 3.0) S_3) ?x1375 ?x5581 ?x3577 ?x5475) 0.0)))
 (let (($x102990 (<= (+ ?x1639 ?x1626 (* (/ 1.0 2.0) A_1) ?x1266 ?x1289 ?x1625 ?x1378 ?x3379) 0.0)))
 (let (($x140681 (<= (+ ?x1678 ?x1685 ?x1675 ?x1296 ?x1375 ?x1315 (* (/ 1.0 2.0) A_1)) 0.0)))
 (let ((?x7852 (* (- (/ 1.0 3.0)) A_3)))
 (let ((?x5420 (* (/ 1.0 3.0) S_3)))
 (let ((?x4616 (* (/ 1.0 3.0) A_4)))
 (let (($x106700 (<= (+ ?x3565 ?x4616 ?x3566 ?x5420 ?x3559 ?x1375 ?x3561 ?x3570 ?x7852) 0.0)))
 (let (($x1201431 (or $x1377 $x1956 (not (<= (+ ?x61998 ?x1374 ?x17104 ?x1375 ?x62608 ?x1383 ?x63706) 0.0)) $x100283)))
 (let (($x50211 (<= (+ Q_4 ?x856 ?x3379 ?x1266 (* (/ 1.0 2.0) A_1) ?x1375 ?x1625 ?x1378 ?x1658) 0.0)))
 (let ((?x28692 (+ (* (/ 6.0 5.0) Q_4) (* (- (/ 6.0 5.0)) A_4) (* (/ 6.0 5.0) A_1) (* (/ 4.0 5.0) S_4) ?x2275 (* (/ 6.0 5.0) S_0) (* (- (/ 6.0 5.0)) A_0) (* (/ 6.0 5.0) A_2))))
 (let (($x28693 (<= ?x28692 0.0)))
 (let (($x32404 (<= (+ (* 2.0 Q_4) (* (- 2.0) A_4) ?x2004 (* 2.0 S_4) ?x4962) 0.0)))
 (let (($x160108 (<= (+ ?x1678 ?x1679 ?x1680 ?x1489 (* (/ 3.0 2.0) S_2) (* (- (/ 1.0 2.0)) S_1) ?x1296 ?x3330) 0.0)))
 (let ((?x1980 (* (- 2.0) A_2)))
 (let ((?x2484 (* (- 2.0) S_1)))
 (let ((?x8848 (* 8.0 S_2)))
 (let ((?x29013 (* (- 6.0) S_4)))
 (let ((?x2301 (* (- 2.0) A_1)))
 (let (($x29008 (<= (+ ?x2150 ?x2133 ?x2301 ?x29013 ?x8848 ?x2484 ?x2274 ?x1980) 0.0)))
 (let (($x4649 (<= (+ ?x761 A_4 ?x757 (* (- 3.0) S_4) ?x3728) 0.0)))
 (let (($x2616 (<= (+ A_3 ?x856) 0.0)))
 (let (($x66995 (<= (+ Q_4 ?x856 (* 2.0 A_3) ?x1489 ?x757 S_2) 0.0)))
 (let (($x105400 (<= (+ A_3 (* (- (/ 1.0 2.0)) S_4) (* (/ 1.0 2.0) S_1) ?x1070) 0.0)))
 (let (($x6724 (<= (+ ?x2150 ?x2133 ?x2301 (* (- 3.0) S_4) (* 3.0 S_1)) 0.0)))
 (let ((?x3569 (* (/ 1.0 3.0) L_0)))
 (let ((?x3568 (* (- (/ 1.0 3.0)) A_0)))
 (let (($x1189920 (or $x1956 $x2039 (<= (+ ?x3565 ?x856 ?x3566 ?x3558 ?x3568 ?x3569 ?x3570 A_3) 0.0) $x23558 $x52125 $x94631)))
 (let ((?x1683 (* 2.0 S_2)))
 (let ((?x1706 (* 2.0 A_3)))
 (let (($x74920 (<= (+ Q_4 ?x856 ?x1706 ?x1489 ?x757 ?x1683 ?x1387 A_0 ?x1070) 0.0)))
 (let (($x2263 (<= (+ A_2 ?x1289 (* (- 1.0) A_0) S_0) 0.0)))
 (let (($x1607 (not $x2263)))
 (let (($x54940 (<= (+ ?x761 ?x3330 ?x1266 (* (/ 1.0 2.0) A_1) (* (- (/ 1.0 2.0)) S_0) ?x1296 ?x1685) 0.0)))
 (let (($x34163 (<= (+ ?x3330 ?x1266 (* (/ 1.0 2.0) A_1) (* (- (/ 1.0 2.0)) S_0) ?x1296 ?x1685) 0.0)))
 (let (($x1191143 (or $x2672 $x4649 (not (<= (+ A_2 S_4 ?x1375 ?x934) 0.0)) (<= (+ Q_4 A_3 ?x1489 S_2 ?x1070) 0.0) $x66995 $x111626 $x160108)))
 (let (($x443088 (or $x4649 (<= (+ A_4 ?x1296 ?x1315 (* (- (/ 1.0 2.0)) S_2) ?x934) 0.0) (not (<= (+ ?x2150 ?x2133 A_0 ?x794 ?x1375 ?x1726) 0.0)) $x29008 $x66995 $x74920 $x111626 $x160108)))
 (let (($x45178 (<= (+ S_4 ?x1289 ?x2274 ?x2275 ?x1739) 0.0)))
 (let (($x1189875 (or $x1956 $x3541 (<= (+ ?x1070 S_4 ?x2274 ?x2271 ?x1739 A_1) 0.0) $x45178 $x52125)))
 (let (($x2261 (<= (+ (* (- 1.0) A_0) ?x1375 S_0 A_1) 0.0)))
 (let (($x2129 (not $x2261)))
 (let (($x1187545 (or $x2039 $x10978 (<= (+ ?x3555 ?x6365 (* (/ 2.0 3.0) A_1) S_3 ?x1375) 0.0))))
 (let (($x1178937 (or $x10978 (not (<= (+ ?x761 ?x3568 ?x3569 ?x5420 A_1 ?x1070) 0.0)) (<= (+ ?x3568 ?x5420 ?x3569 A_1 ?x1070) 0.0) $x24389)))
 (let (($x33769 (<= (+ A_2 ?x1489 ?x2133 ?x2301 ?x1683 (* (- 1.0) S_0) A_0 ?x1726) 0.0)))
 (let (($x92677 (<= (+ ?x1639 ?x1626 ?x1658 ?x1266 ?x1289 ?x1296 ?x1315 ?x1680 ?x3379) 0.0)))
 (let (($x43987 (<= (+ ?x3555 ?x6365 (* (/ 2.0 3.0) A_2) ?x3558 ?x1289 ?x5581 ?x3577 ?x5475) 0.0)))
 (let (($x38800 (<= (+ ?x1658 ?x1266 ?x1626 ?x1289 ?x1296 ?x1315 ?x1680 ?x3379) 0.0)))
 (let (($x38145 (not $x38800)))
 (let ((?x3510 (* (/ 2.0 3.0) A_2)))
 (let ((?x3584 (* (/ 2.0 3.0) S_4)))
 (let ((?x7675 (* (- (/ 2.0 3.0)) A_3)))
 (let ((?x3575 (* (- (/ 2.0 3.0)) Q_4)))
 (let (($x91292 (<= (+ ?x3575 ?x7675 ?x3584 ?x3522 ?x1289 ?x3530 ?x3510) 0.0)))
 (let (($x135759 (<= (+ ?x761 A_4 ?x1489 ?x757 S_1 A_0 ?x1070) 0.0)))
 (let (($x6204 (not (<= (+ (* (/ 1.0 2.0) A_1) ?x1070 ?x3379) 0.0))))
 (let (($x9916 (<= (+ A_1 S_4 ?x856 ?x1289 ?x1375 S_0 (* (- 1.0) A_0) A_2) 0.0)))
 (let (($x2219 (<= (+ S_4 ?x856 A_2 ?x1289) 0.0)))
 (let (($x86426 (<= (+ ?x761 ?x934 S_4 A_1 ?x1289) 0.0)))
 (let (($x49247 (<= (+ ?x761 A_4 ?x934 A_1 ?x1289 ?x794) 0.0)))
 (let (($x36540 (<= (+ ?x3330 ?x1266 (* (/ 1.0 2.0) A_1) ?x1289 ?x1625 ?x1378 ?x1658) 0.0)))
 (let (($x1167303 (or $x2039 $x2128 $x3341 $x13297 $x36540 $x49247 (<= (+ ?x1678 ?x3330 ?x1266 (* (/ 1.0 2.0) A_1) ?x1289 ?x1315 ?x1658) 0.0) $x63796 $x91292)))
 (let (($x21193 (<= (+ ?x1680 (* (- (/ 1.0 2.0)) S_4) S_2 (* (/ 1.0 2.0) L_0)) 0.0)))
 (let (($x13372 (<= (+ ?x1296 (* (/ 1.0 2.0) L_0) (* (/ 1.0 2.0) S_2) ?x757) 0.0)))
 (let (($x76008 (not (<= (+ ?x761 ?x1489 ?x794 A_3) 0.0))))
 (let (($x3943 (<= (+ ?x757 ?x1489 ?x1683 L_0) 0.0)))
 (let (($x89961 (<= (+ ?x2301 ?x1489 ?x2133 S_1 ?x2274 ?x1726) 0.0)))
 (let (($x2206 (not $x2039)))
 (let (($x1178282 (or $x24389 (not (<= (+ ?x761 ?x1070 S_4 ?x2274 ?x2275 ?x794) 0.0)) (<= (+ ?x1685 ?x1266 A_0 ?x1375 ?x1315) 0.0))))
 (let ((?x5688 (+ (* (/ 3.0 5.0) A_1) (* (/ 2.0 5.0) S_4) (* (- (/ 3.0 5.0)) A_4) ?x1375 (* (/ 3.0 5.0) S_0) (* (- (/ 3.0 5.0)) A_0) (* (/ 3.0 5.0) A_2))))
 (let (($x5689 (<= ?x5688 0.0)))
 (let (($x86066 (<= (+ ?x1639 (* (/ 3.0 2.0) A_2) (* (- (/ 1.0 2.0)) S_4) ?x1378 ?x1625 ?x757) 0.0)))
 (let (($x78805 (<= (+ ?x3555 (* (/ 2.0 3.0) A_1) ?x3558 (* (- (/ 1.0 3.0)) S_0) ?x3522 ?x1070) 0.0)))
 (let (($x13158 (<= (+ ?x1378 (* (/ 1.0 2.0) L_0) ?x1489 (* (/ 3.0 2.0) S_2)) 0.0)))
 (let (($x1408 (<= (+ (* (- (/ 1.0 4.0)) A_0) (* (/ 1.0 4.0) L_0) ?x1374 A_1 ?x1070) 0.0)))
 (let (($x87448 (<= (+ Q_4 A_3 ?x1489 (* (- 1.0) A_0) L_0 ?x6028 ?x1070) 0.0)))
 (let ((?x5979 (* 3.0 S_1)))
 (let ((?x1694 (* 2.0 L_0)))
 (let ((?x3729 (* (- 2.0) A_0)))
 (let (($x42201 (<= (+ Q_4 ?x856 A_2 ?x1489 (* (- 3.0) A_0) ?x1694 ?x6028 S_0 A_3) 0.0)))
 (let (($x19423 (<= (+ ?x3533 ?x3577 (* (/ 2.0 3.0) L_0) S_1) 0.0)))
 (let (($x15692 (<= (+ A_2 ?x1489 (* (- 1.0) A_0) S_1) 0.0)))
 (let (($x478979 (or $x2039 $x6211 $x15692 $x19423 $x42201 (<= (+ Q_4 ?x856 A_2 ?x1489 ?x3729 ?x1694 ?x5979 ?x757 A_3) 0.0) $x87448)))
 (let (($x62328 (<= (+ Q_4 A_3 ?x1489 S_1 ?x757) 0.0)))
 (let (($x41792 (<= (+ ?x1658 (* (- (/ 1.0 2.0)) S_4) ?x1378 (* (/ 1.0 2.0) L_0) S_1 ?x1680) 0.0)))
 (let (($x1155250 (or $x2152 $x15692 $x19423 $x40606 (not $x41792) $x62328 (<= (+ Q_4 A_2 ?x1489 (* (- 1.0) A_0) L_0 ?x6028 ?x757) 0.0) (<= (+ Q_4 A_2 ?x1489 ?x3729 L_0 S_1 S_0) 0.0))))
 (let (($x23242 (<= (+ ?x1678 ?x1679 ?x1658 ?x934) 0.0)))
 (let (($x1184061 (or $x2206 $x6211 (<= (+ ?x3565 ?x4616 (* (/ 2.0 3.0) A_1) ?x1070) 0.0) (<= (+ ?x1685 ?x1489 ?x1679 S_2) 0.0) $x51719 $x89961 $x104225)))
 (let (($x1157450 (or $x2206 $x2474 $x2713 (<= (+ ?x757 A_4 (* (- 3.0) S_3) ?x5979) 0.0) $x51719 (<= (+ ?x757 A_4 ?x1289 S_1 A_0 ?x934) 0.0))))
 (let (($x22981 (<= (+ ?x1639 ?x1626 ?x1658 ?x1672 ?x1625 ?x1378 ?x3379) 0.0)))
 (let (($x68733 (<= (+ ?x1678 ?x1679 ?x1685 ?x1489 S_2) 0.0)))
 (let (($x3212 (<= (+ ?x761 ?x1070 A_0 S_2 ?x1387) 0.0)))
 (let (($x1161564 (or $x2713 $x3212 (<= (+ ?x761 A_4 ?x1070 ?x1489 ?x1683 ?x1387 A_0 ?x934) 0.0) $x68733)))
 (let (($x6034 (<= (+ ?x1289 ?x6028 L_0 (* (- 1.0) A_0)) 0.0)))
 (let (($x470431 (or $x1949 (not $x2474) $x6034 $x63796 (<= (+ Q_4 A_2 ?x1289 S_1 ?x757) 0.0))))
 (let (($x14545 (<= (+ ?x3568 ?x3569 (* (- (/ 2.0 3.0)) S_4) S_2) 0.0)))
 (let (($x13900 (<= (+ Q_4 ?x856 A_3 ?x1378 (* (/ 1.0 2.0) L_0) (* (/ 1.0 2.0) S_2)) 0.0)))
 (let (($x37389 (<= (+ A_1 ?x856 ?x1375 S_0 (* (- 1.0) A_0) A_3) 0.0)))
 (let (($x17771 (<= (+ ?x1070 S_4 ?x2274 ?x2275 ?x794) 0.0)))
 (let ((?x4077 (* (- 3.0) S_3)))
 (let ((?x4967 (* 3.0 S_4)))
 (let ((?x2165 (* (- 2.0) A_4)))
 (let ((?x2105 (* 2.0 Q_4)))
 (let (($x6392 (<= (+ ?x2105 ?x2165 ?x3752 ?x4967 ?x4077) 0.0)))
 (let (($x3380 (<= (+ ?x1639 ?x3379 (* (- (/ 1.0 2.0)) S_4) ?x1378 (* (/ 1.0 2.0) L_0) S_1 ?x1680) 0.0)))
 (let (($x82508 (<= (+ Q_4 ?x856 A_2 ?x1289 (* (- 1.0) A_0) L_0 ?x6028 ?x757 A_3) 0.0)))
 (let (($x13288 (<= (+ ?x1378 ?x1672 (* (/ 1.0 2.0) L_0) S_1) 0.0)))
 (let (($x510615 (or $x1949 $x2039 $x13288 (<= (+ Q_4 ?x856 A_2 ?x1289 ?x3729 L_0 S_1 S_0 A_3) 0.0) $x82508)))
 (let (($x23307 (<= (+ ?x1639 ?x1626 ?x1658 S_1 L_0 (* (- 1.0) A_0)) 0.0)))
 (let (($x2171 (<= (+ Q_4 ?x856 A_3 (* (- 1.0) A_0) L_0 S_1) 0.0)))
 (let (($x1149630 (or $x2152 (not (<= (+ ?x1489 S_0 (* (- 1.0) A_0) A_3) 0.0)) $x13913 $x14545 $x40606 $x117302)))
 (let (($x19238 (<= (+ ?x1658 ?x1266 ?x1626 ?x1289 (* (- (/ 1.0 2.0)) S_2) ?x1315 ?x1625 ?x3379) 0.0)))
 (let (($x6429 (<= (+ Q_4 ?x856 A_1 S_4 ?x1375) 0.0)))
 (let ((?x1637 (* (/ 1.0 2.0) A_1)))
 (let ((?x1379 (* (/ 1.0 2.0) L_0)))
 (let ((?x10280 (* (/ 3.0 2.0) S_2)))
 (let (($x13480 (<= (+ ?x1678 ?x1679 ?x1685 ?x1489 ?x1378 ?x10280 ?x1379 ?x1637 ?x3330) 0.0)))
 (let (($x448826 (or $x2039 $x2713 (<= (+ ?x761 ?x1070 ?x1489 (* (- 1.0) A_0) ?x1683 L_0 A_1) 0.0) $x13480 $x68733)))
 (let (($x54442 (<= (+ ?x761 ?x934 A_2) 0.0)))
 (let (($x8837 (<= (+ ?x934 A_1 ?x1375 S_0 (* (- 1.0) A_0) A_2) 0.0)))
 (let (($x410412 (or $x973 $x1408 $x1949 $x2039 (<= (+ ?x3555 ?x3510 ?x3558 ?x1289 ?x3559 ?x3561 (* (- (/ 2.0 3.0)) A_1)) 0.0) $x63796)))
 (let (($x39274 (<= (+ ?x1489 (* (- 1.0) A_0) S_2 L_0 S_1) 0.0)))
 (let (($x2746 (<= (+ ?x1070 A_1) 0.0)))
 (let (($x500835 (or $x2746 $x3212 $x23558 (<= (+ ?x761 A_4 ?x1070 ?x2274 ?x794 ?x1387 ?x934) 0.0))))
 (let (($x8145 (<= (+ ?x761 A_4 ?x934 ?x1289 S_1) 0.0)))
 (let (($x467965 (or $x2039 $x2474 $x8145 (<= (+ ?x761 ?x934 S_4 ?x4962 S_1 A_2) 0.0))))
 (let (($x409660 (or $x2039 (<= (+ Q_4 ?x856 (* (- 1.0) A_0) ?x1694 ?x1683) 0.0) $x13900)))
 (let (($x9551 (<= (+ ?x1489 S_0 (* (- 1.0) A_0) A_3) 0.0)))
 (let (($x31212 (<= (+ A_3 ?x1489 ?x757 S_2 A_0 ?x1070) 0.0)))
 (let (($x1157930 (or $x2206 $x4649 $x6211 $x29008 $x31212 $x51719 (<= (+ ?x1680 ?x1489 ?x1679 ?x10280 (* (- (/ 1.0 2.0)) S_1) ?x1296 ?x3330) 0.0))))
 (let (($x3160 (<= (+ ?x761 ?x1070 A_1) 0.0)))
 (let (($x504144 (or $x3160 (<= (+ ?x1678 ?x1679 ?x1685 ?x1296 (* (- (/ 1.0 2.0)) S_2) ?x1315 ?x1637 ?x3330) 0.0) $x23558)))
 (let ((?x5671 (* (/ 2.0 5.0) A_2)))
 (let ((?x5670 (* (- (/ 2.0 5.0)) A_0)))
 (let ((?x5669 (* (/ 2.0 5.0) S_0)))
 (let ((?x5666 (* (/ 3.0 5.0) S_4)))
 (let ((?x5631 (* (/ 2.0 5.0) A_1)))
 (let ((?x5622 (* (- (/ 2.0 5.0)) A_4)))
 (let (($x458735 (or $x973 $x2219 $x4264 (<= (+ (* (/ 2.0 5.0) Q_4) ?x5622 ?x5631 ?x5666 ?x1289 ?x5669 ?x5670 ?x5671) 0.0))))
 (let (($x13165 (<= (+ Q_4 ?x856 L_0 S_2 ?x757 A_3) 0.0)))
 (let (($x1210473 (or $x2039 (<= (+ Q_4 ?x856 ?x2301 ?x3728 (* 3.0 L_0)) 0.0) $x13165)))
 (let (($x8780 (<= (+ (* (/ 2.0 3.0) A_1) ?x3558 ?x6365 ?x1375 ?x5581 ?x3577 ?x3510) 0.0)))
 (let (($x57432 (<= (+ ?x761 A_4 ?x1726 A_1) 0.0)))
 (let (($x4809 (<= (+ ?x761 ?x934 S_3 ?x1387 A_0) 0.0)))
 (let (($x2116 (<= (+ ?x934 A_2) 0.0)))
 (let (($x38459 (<= (+ ?x1658 (* (- (/ 1.0 2.0)) S_4) ?x1626 ?x1378 ?x1379 S_1 ?x1680 ?x3379) 0.0)))
 (let (($x470207 (or $x2616 $x15692 (<= (+ A_2 ?x1489 ?x856 ?x3729 L_0 S_1 S_0 A_3) 0.0) $x19423 $x38459)))
 (let (($x18309 (<= (+ ?x1070 S_3 A_0 ?x1375) 0.0)))
 (let (($x4936 (<= (+ ?x934 S_3 A_1 ?x1375) 0.0)))
 (let (($x27750 (<= (+ ?x3555 ?x6365 (* (- (/ 1.0 3.0)) A_1) S_3 L_0) 0.0)))
 (let (($x478870 (or (not (<= (+ ?x856 ?x1680 (* (/ 3.0 2.0) S_3) (* (/ 3.0 2.0) L_0)) 0.0)) $x27750)))
 (let (($x78706 (<= (+ ?x1678 ?x856 ?x1680 (* (/ 3.0 2.0) A_3)) 0.0)))
 (let (($x508654 (or $x2128 (<= (+ ?x1678 ?x1679 ?x934 ?x1637 ?x1672 ?x1625 ?x1378 ?x1658) 0.0) $x49247 $x54442)))
 (let (($x462510 (or $x2039 $x2171 (<= (+ ?x17095 ?x17104 (* (- (/ 9.0 4.0)) A_0) (* 3.0 L_0) ?x5979) 0.0) $x23307)))
 (let (($x1215712 (or $x2616 $x19423 (<= (+ A_2 ?x856 (* (- 1.0) A_0) L_0 S_1) 0.0))))
 (let (($x367563 (or $x973 $x2219 $x4264 (<= (+ ?x5631 ?x5666 ?x5622 ?x1289 ?x5669 ?x5670 ?x5671) 0.0))))
 (and (or $x973 $x2219 $x6392) (or $x1377 $x6429) (or (<= (+ A_3 ?x2274 ?x2275 ?x1739 ?x757) 0.0) $x4936) (or $x6429 $x10978) (or $x6429 $x18309) (or $x2104 $x3160) (or $x1377 $x2746) (or $x2039 (<= (+ ?x17095 ?x17104 (* (- (/ 1.0 4.0)) A_0) L_0 S_3) 0.0)) (or $x2219 (<= (+ ?x1266 (* (- (/ 3.0 2.0)) S_3) S_1) 0.0)) $x367563 (or $x2128 $x2219 $x5606) (or $x2219 $x8145) (or $x1377 $x1956 $x2616 $x37389) (or $x1956 $x2616 $x10978 $x37389) (or $x6429 $x17771) (or (not (<= (+ A_3 ?x2274 ?x2275 ?x1739 ?x757) 0.0)) $x10978) (or $x973 $x5606 $x35456) (or $x2746 $x17771) (or $x1377 $x1956 $x2219 $x9916) (or $x1377 $x1956 $x2039 $x52125) (or $x2713 $x2746 $x13158) (or $x2713 $x2746 $x39274) (or $x2746 $x45178) $x1215712 $x462510 (or $x2616 $x19423 $x41792) (or $x2104 $x4809 $x4936) (or $x13158 (<= (+ Q_4 ?x856 A_3) 0.0)) (or $x1377 $x4936) (or $x2116 $x2128 (<= (+ ?x761 ?x934 ?x1378 ?x1675 ?x1379 A_1) 0.0)) (or $x2128 $x54442 $x57432) $x508654 (or $x2104 (<= (+ ?x761 ?x934 S_3 ?x1375 A_1) 0.0)) (or $x2116 $x6034) (or $x2039 $x2474 $x6034) (or $x2219 $x6034) (or $x1377 $x2116 $x5606) (or $x1377 $x5606 $x35456) (or $x2104 $x3373 $x4936) (or $x2746 $x10978) (or $x2746 $x18309) (or $x2104 $x2746 $x3373) (or $x6429 $x45178) (or $x2474 $x2616 $x6034) (or $x8145 $x54442) (or $x2128 $x2219 $x36540 $x49247) (or $x1949 $x2616 $x6034 $x22981 $x38800) (or $x1949 $x2616 $x6034 $x19238 $x37389 $x38800) (or $x2713 $x3160 $x13480 $x68733) (or $x2713 (<= (+ Q_4 S_2 L_0 ?x1070) 0.0) $x21193) (or $x2746 $x85251) (or $x2616 $x21193) (or (<= (+ Q_4 ?x856 A_3) 0.0) $x39274) (or $x1377 $x1956 $x2219 $x102990) (or $x2713 (<= (+ ?x1070 S_2 ?x1387 A_0) 0.0) $x14545) (or $x2116 $x5606 $x85251) (or $x2104 $x2746 $x3212) (or $x2039 $x2261 $x10978) (or $x2039 (<= (+ (* (- (/ 1.0 3.0)) A_1) ?x6365 S_3 L_0) 0.0)) (or (not (<= (+ ?x856 ?x1680 ?x1675 ?x1379 A_3) 0.0)) $x27750) (or (<= (+ Q_4 S_3 L_0 ?x934) 0.0) $x78706) (or $x27750 (not $x78706)) $x478870 (or $x2474 (<= (+ ?x3558 ?x1289 (* (/ 2.0 3.0) S_1)) 0.0) $x51719) (or $x2474 $x8145 $x51719) (or $x1956 $x2616 $x18309 $x37389) (or $x4936 $x18309) (or $x2039 $x18309 $x24389) $x470207 (or $x2104 $x2746 $x94348) (or $x973 $x2746 $x90458) (or $x973 $x4936 $x90458) (or $x973 $x6429 $x90458) (or $x973 $x1949 $x2746 $x19238 $x38800) (or $x3574 $x6429 $x23558 $x106700) (or $x2116 $x5606 $x12982) (or $x2039 $x2171 $x19423 $x23307) (or $x2039 $x2713 $x14545) (or $x2116 $x2128 $x86426) (or $x2116 $x2128 $x4809 $x57432) (or $x2116 $x2128 $x5606 $x157062) (or $x3943 $x6211 $x31212 $x51719) (or $x2713 (<= (+ ?x1070 S_2 ?x1387 A_0) 0.0) $x21193) (or $x1377 $x1956 $x2616 $x8780) (or $x1956 $x2616 $x8780 $x10978) $x1210473 (or $x2128 $x35456 $x86426) (or $x1956 $x2219 $x9916 $x10978) (or $x1956 $x2129 $x10978 $x52125) (or $x1956 $x8837 $x10978 $x54442) (or $x973 $x2219 $x4264 $x102990) (or $x973 $x1949 $x2616 $x4264 $x22981 $x38800 $x102990) (or $x2039 $x2474 (<= (+ ?x3558 ?x1289 (* (/ 2.0 3.0) S_1)) 0.0)) $x458735 (or $x6429 $x85251) (or $x2039 (<= (+ ?x2150 ?x2133 ?x1726 A_0 ?x1070) 0.0) $x2263 $x3341 $x86426) (or $x2039 $x2128 $x2263 $x3341 $x86426) (or $x2152 (not $x6211) $x19423 $x40606 $x41792 $x62328 $x87448) (or $x2116 $x2128 $x5606 $x91292) (or $x1377 $x1956 $x2039 $x19315) (or $x2206 $x6204 $x6211 $x6724 $x51719 $x89961 $x135759) (or $x2104 $x4936 $x100581) (or $x973 $x1949 $x6429 $x19238 $x38800) (or $x973 $x1949 $x2616 $x4264 $x19238 $x37389 $x38800) $x504144 (or $x4936 $x12982 $x90458) (or $x6429 $x12982 $x90458) (or $x2104 $x6429 $x70199) (or $x2104 $x6429 $x94348) (or $x4936 $x85251) (or $x1377 $x2039 $x24389) $x1157930 (or $x2116 $x2128 $x5606 $x87289) (or $x2474 $x2616 (<= (+ ?x3558 ?x1289 (* (/ 2.0 3.0) S_1)) 0.0)) (or $x1956 $x2039 $x2104 $x3574 $x52125) (or $x2672 $x9551 $x13913 $x14545 $x117302) (or $x2039 $x2713 $x21193) (or $x2039 $x13165 $x21193) $x409660 (or $x2104 $x4936 $x87289) (or $x2104 $x6429 $x87289) $x467965 $x500835 (or $x2672 $x6211 $x14545 $x117302) (or $x2672 $x14545 $x66995 $x117302) (or $x2039 $x2713 $x39274) (or $x2104 $x4936 $x94348) (or $x2104 $x4936 $x70199) (or $x4936 $x23558 $x140681) (or $x2713 $x3212 $x13480 $x68733) $x410412 (or $x2128 $x2474 $x5606 $x51115 $x91292) (or $x1956 $x2104 $x8837 $x54442) (or $x1956 $x2039 $x2104 $x52125 $x100581) $x448826 (or $x6034 $x32404) (or $x1949 $x6034 $x6429 $x19238 $x38800) (or $x3160 $x23558 $x94631) $x1149630 (or $x3574 $x6429 $x23558 $x94631) (or $x973 $x1956 $x2129 $x52125 $x90458) (or $x1956 $x2128 $x2129 $x52125 $x86426 $x90458) (or $x2128 $x6429 $x86426 $x90458) (or $x2128 $x4936 $x86426 $x90458) (or $x2104 $x4936 $x90458 $x157062) (or $x4936 $x6034 $x90458) (or $x1956 $x2039 $x18309 $x52125) (or $x1956 $x2039 $x18309 $x19315) (or $x4936 $x17771) (or $x2746 $x23558 $x106700 $x140681) (or $x2746 $x23558 $x73663 $x198483) (or $x2104 $x4936 $x73663) (or $x4936 $x23558 $x73663) (or $x2039 $x2171 $x13288 $x23307) $x510615 (or $x6034 $x6429 $x90458) (or $x1956 $x3380 $x6034 (<= (+ A_1 S_3 ?x1387 ?x1070) 0.0) $x52125 $x90458) (or $x1956 $x2039 $x52125 $x85251) (or $x2104 $x3373 $x6429) (or $x2039 (<= (+ ?x1639 ?x1626 ?x1685 S_3 L_0) 0.0)) (or $x973 $x2116 $x5606) (or $x973 $x6392 $x35456) (or $x1956 $x2616 $x17771 $x37389) (or $x2039 $x13900 $x14545) (or $x5606 $x12982 $x35456) (or $x2116 $x2128 $x5606 $x94348) (or $x2746 $x23558 $x46471 $x70199) $x470431 (or $x2039 $x6211 $x19423 $x41792 $x87448) $x1161564 (or $x1377 $x1956 $x2474 $x2616 $x102990) (or $x1377 $x1956 $x2616 $x22981 $x102990) $x1157450 $x1184061 (or $x6211 $x6461 $x23242 $x51719 $x135759) (or $x4649 $x6211 $x51719 $x135759 $x160108) (or $x6211 $x23242 $x51719 (<= (+ ?x761 A_4 ?x1489 S_1 ?x1070) 0.0)) (or $x1956 $x2039 $x2104 $x3373 $x52125) (or $x973 $x1949 $x4264 $x38145 $x63796 $x92677 $x102990) (or $x2474 $x5606 $x12982 $x51115) $x1155250 (or $x2039 $x23558 $x24389 $x73663 $x198483) (or $x2746 $x3574 $x23558 $x94631) $x478979 (or $x1408 $x1949 $x2039 $x44018 $x45178) (or $x2039 $x13158 $x66995 $x74920) (or $x1377 $x1956 $x5606 $x63796 $x78805 $x86066) (or $x1956 $x2039 $x23558 $x52125 $x106700 $x140681) (or $x2104 $x3574 $x4936) (or $x1377 $x1956 $x2039 $x44018) (or $x1377 $x1956 $x2039 $x5689 $x50211) (or $x1377 $x1956 (not $x5689) $x28693 $x50211) $x1178282 (or $x2039 $x17771 $x24389) (or $x1956 $x2039 $x17771 $x19315) (or $x2206 $x6211 $x6724 $x23277 $x51719 $x89961 $x104225 $x105400) (or $x2152 $x3943 $x13372 $x40606 $x76008 $x117302) (or $x3943 $x6211 $x76008 $x117302) (or $x2672 $x6211 $x21193 $x117302) (or $x2672 $x3943 $x66995 $x117302) (or $x2672 $x13372 (<= (+ ?x761 ?x794 ?x1375 A_2) 0.0) $x21193 $x40606 $x117302) (or $x1956 $x2104 $x3574 $x29756 $x44018) (or $x1956 $x2147 $x2279 $x3574 $x23558 $x52125) (or $x2039 $x3574 $x23558 $x24389 $x94631) (or $x6429 $x23558 $x73663 $x198483) (or $x3574 $x6429 $x23558 $x46471) $x1167303 (or (not $x2219) $x5606 $x35456 $x91292) (or $x1607 $x1949 $x2128 $x3341 $x63796 $x86426) (or $x1956 $x2104 $x2219 $x9916) (or $x6204 $x6211 $x6724 $x51719 $x135759 $x147404) (or $x1607 $x1949 $x2128 $x3341 $x5606 $x63796 $x91292) (or $x973 $x1949 $x2039 $x4264 $x38800 $x43987 $x102990) (or $x973 $x1949 $x38145 $x43987 (not $x63796) $x92677) (or $x1956 $x2039 $x23558 (not $x33769) $x44018 (not $x52125) $x94631) (or $x2713 $x6724 $x23277 $x51719 $x104225 $x147404) $x1178937 (or $x2128 $x5606 $x35456 $x157062) $x1187545 (or $x6429 $x23558 $x46471 $x70199) (or $x1956 $x2104 $x2129 $x52125 $x73663) (or $x973 $x2474 $x5606 $x51115) (or $x2474 $x4264 $x51719 $x102990) $x1189875 (or $x973 $x2474 $x2616 $x4264 $x102990) (or $x2713 $x3212 $x4649 $x160108) $x443088 $x1191143 (or $x1949 $x2128 $x5606 $x34163 (not $x54940) $x63796 $x157062) (or $x1607 $x1956 $x2104 $x5606 $x63796 $x87289) (or $x2104 $x2474 $x5606 $x51115 $x87289) (or $x2039 $x4649 $x29008 $x66995 $x74920 $x111626 $x160108) (or $x2128 $x6429 $x90458 $x157062) (or $x1956 $x2147 $x2279 $x23558 $x52125 $x70199) (or $x2039 $x23558 $x24389 $x46471 $x70199) $x1189920 (or $x2474 (<= (+ A_4 ?x4962 ?x6028 ?x1070) 0.0) $x6738 $x51719 $x147404) (or $x6724 $x22543 $x51719 $x105400 $x147404) (or $x1677 $x1956 $x2039 $x10978) (or $x2039 $x4649 $x29008 $x66995 $x111626 $x117302 $x160108) (or $x2616 $x4649 $x29008 $x160108) (or $x5606 $x32404 $x85251) (or $x1956 $x2039 $x2104 $x28693 $x50211 $x87289) (or $x1956 $x2039 $x2104 $x52125 $x87289) (or $x1956 $x2039 $x10978 $x19315) $x1201431 (or $x2474 (<= (+ A_4 ?x4962 ?x6028 ?x1070) 0.0) $x6738 $x51719 $x140613) (or $x2039 $x23558 $x106700 $x140681 (<= (+ ?x856 ?x1070 ?x4951 ?x3752 ?x2275) 0.0)) (or $x1956 $x2039 $x19315 $x23558 $x106700 $x140681) (or $x2039 $x23558 $x24389 $x106700 $x140681) (or $x1956 $x2474 $x51719 $x102990) (or (<= (+ ?x856 A_0 S_4 ?x1387) 0.0) $x6738 $x22543 $x140613 $x140880) (or $x2219 $x6738 $x140613 $x140880) (or $x1956 $x2039 $x17771 $x52125) (or $x1949 $x1956 $x12450 $x12982 $x52125 $x90458) (or $x1956 $x2039 $x10978 $x207347) $x1213467 (or $x1956 $x2039 $x23558 $x44018 $x46471 $x70199) (or $x1956 $x2039 $x19315 $x23558 $x46471 $x70199) (or $x1956 $x2039 $x3574 $x19315 $x23558 $x94631) (or $x1956 $x2039 $x17771 $x44018) (or $x1377 $x1956 $x2039 $x100283) (or $x1956 $x3574 $x23558 $x29756 $x44018 $x94631) (or $x2104 $x5606 $x35456 $x87289) (or $x2128 $x5606 $x35456 $x94348) (or $x1377 $x2474 $x5606 $x51115) (or $x2474 $x5606 $x51115 $x85251) $x1204271 (or $x1949 $x3341 $x5606 $x12450 $x12982 $x63796) $x1159639 (or $x2039 $x10978 $x24389) $x1156693 (or $x1677 $x1956 $x2039 $x2104 $x100581) (or $x1956 $x2104 $x3541 $x52125 $x70199) (or $x1956 $x2104 (not $x3373) $x52125 $x94348) (or $x2152 $x2672 $x6461 $x13913 $x40606 $x111626 $x117302) (or $x2039 $x2713 $x6461 $x111626 $x128295) $x1149170 (or $x1956 $x2039 $x19315 $x23558 $x73663 $x198483) $x1143854 (or $x6738 $x22543 $x51719 $x140613 $x140880) $x1163679 $x439071 $x439091 $x1158407 $x1194938 (or $x1956 $x2147 $x2279 $x23558 $x52125 $x73663) $x1419 (<= (+ Q_4 ?x856 L_0 S_4) 0.0) (<= (+ ?x1387 S_0) 0.0) (<= (+ S_0 L_0 (* (- 1.0) A_0)) 0.0) (<= (+ ?x1489 S_3) 0.0) (<= (+ ?x1070 S_2 L_0) 0.0) (<= (+ ?x757 S_1 L_0) 0.0) (<= (+ ?x1375 S_1) 0.0) (<= (+ ?x1289 S_2) 0.0) (<= (+ ?x934 S_3 L_0) 0.0))))))))))))))))))))))))))))))))))))))))))))))))))))))))))))))))))))))))))))))))))))))))))))))))))))))))))))))))))))))))))))))))))))))))))))))))))))))))))))))))))))))))))))))))))))))))))))))))))))))))))))))))))))))))))))))))))))))))))))))))))))))))))))))))))))))))))))))))))))))))))))))))))))))))))))))))))))))))
(check-sat)
